p cnf 85 214
-14 -2 0
14 0
-15 -2 0
15 0
-16 -1 0
-16 2 0
-17 1 0
-17 -2 0
16 17 0
-18 -1 0
-18 3 0
-19 1 0
-19 -3 0
18 19 0
-20 -3 0
20 0
-21 -3 0
21 0
-22 -2 0
22 0
-23 -1 0
-23 2 0
-23 4 0
-24 1 0
-24 -2 0
-24 4 0
-25 1 0
-25 2 0
-25 -4 0
23 24 25 0
-26 -1 0
-26 4 0
-26 5 0
-27 1 0
-27 -4 0
-27 5 0
-28 1 0
-28 4 0
-28 -5 0
26 27 28 0
-29 -1 0
-29 -3 0
-29 5 0
-30 -1 0
-30 3 0
-30 -5 0
-31 1 0
-31 -3 0
-31 -5 0
29 30 31 0
-32 -3 0
32 0
-33 -2 0
-33 6 0
-34 2 0
-34 -6 0
33 34 0
-35 -2 0
-35 4 0
-35 6 0
-36 2 0
-36 -4 0
-36 6 0
-37 2 0
-37 4 0
-37 -6 0
35 36 37 0
-38 -4 0
-38 5 0
-38 7 0
-39 4 0
-39 -5 0
-39 7 0
-40 4 0
-40 5 0
-40 -7 0
38 39 40 0
-41 -3 0
-41 -5 0
-41 -8 0
41 0
-42 -3 0
-42 -8 0
42 0
-43 -4 0
-43 6 0
-43 9 0
-44 4 0
-44 -6 0
-44 9 0
-45 4 0
-45 6 0
-45 -9 0
43 44 45 0
-46 -4 0
-46 7 0
-46 9 0
-47 4 0
-47 -7 0
-47 9 0
-48 4 0
-48 7 0
-48 -9 0
46 47 48 0
-49 -5 0
-49 7 0
-49 10 0
-50 5 0
-50 -7 0
-50 10 0
-51 5 0
-51 7 0
-51 -10 0
49 50 51 0
-52 -5 0
-52 -8 0
-52 10 0
-53 -5 0
-53 8 0
-53 -10 0
-54 5 0
-54 -8 0
-54 -10 0
52 53 54 0
-55 6 0
-55 11 0
55 0
-56 -6 0
-56 9 0
-56 11 0
-57 6 0
-57 -9 0
-57 11 0
-58 6 0
-58 9 0
-58 -11 0
56 57 58 0
-59 -7 0
-59 9 0
-59 10 0
-60 7 0
-60 -9 0
-60 10 0
-61 7 0
-61 9 0
-61 -10 0
59 60 61 0
-62 -8 0
-62 10 0
-62 12 0
-63 8 0
-63 -10 0
-63 12 0
-64 8 0
-64 10 0
-64 -12 0
62 63 64 0
-65 -8 0
-65 12 0
-66 8 0
-66 -12 0
65 66 0
-67 11 0
67 0
-68 -9 0
-68 -11 0
-68 13 0
-69 -9 0
-69 11 0
-69 -13 0
-70 9 0
-70 -11 0
-70 -13 0
68 69 70 0
-71 -9 0
-71 -10 0
-71 13 0
-72 -9 0
-72 10 0
-72 -13 0
-73 9 0
-73 -10 0
-73 -13 0
71 72 73 0
-74 -10 0
-74 12 0
-74 13 0
-75 10 0
-75 -12 0
-75 13 0
-76 10 0
-76 12 0
-76 -13 0
74 75 76 0
-77 12 0
77 0
-78 11 0
78 0
-79 11 0
79 0
-80 -11 0
-80 13 0
-81 11 0
-81 -13 0
80 81 0
-82 -12 0
-82 13 0
-83 12 0
-83 -13 0
82 83 0
-84 12 0
84 0
-85 12 0
85 0
